QBPP_HJ*_25_025_06_4
25 226 7
33 48 41 33 8 15 50 7 10 43 49 30 48 9 38 25 20 22 20 5 35 1 1 41 45
    0    0    0  -30    0  -25    0    0    0  -19    0    0   17    0    0    0    0    0    0    0    0    0    0   17   42
    0    0   22   22    0   -2  -33    0    0    0  -41    0    0    0    0    0    0    0   46    0    0    0    0    0   18
    0   22    0   36   36    3    0   45    0    0    0    0    0    0  -28    0    0    0    0   30    0   21   46    0    0
  -30   22   36    0    0    0    0    0   -3    0    0    0    0    0  -47    0  -32    0    0   37    7    0    0    0  -47
    0    0   36    0    0    0    0    0    0   32   19    4  -18    0    0   12   16    0    0    0    0    0  -39    0  -36
  -25   -2    3    0    0    0    0    0    0    0    0    0    0    0    0    0  -17    0    2    0  -49    0    0   39    0
    0  -33    0    0    0    0    0    0    0    0    0    0    0    0    0    0    0    0   15    0    0   32  -12    0   30
    0    0   45    0    0    0    0    0  -21    0    0    0    0  -20    0   21   29    0    0    0    0    0    0  -22    9
    0    0    0   -3    0    0    0  -21    0    0  -23   27    3   10    0    0    0    0    0    0    0    0  -21    0    0
  -19    0    0    0   32    0    0    0    0    0    0    0    0    0    0   12    0  -48    0    0    0    2    0    0    0
    0  -41    0    0   19    0    0    0  -23    0    0    0    0   27    0    0    0    0  -15  -35   21    0    0  -21    0
    0    0    0    0    4    0    0    0   27    0    0    0   10    0    0    0    0   40  -17    0    0    0    0    0    0
   17    0    0    0  -18    0    0    0    3    0    0   10    0    0  -34    0    0    0    0    0   46  -36    0    0    0
    0    0    0    0    0    0    0  -20   10    0   27    0    0    0    0    8    0   10    0  -41   37   29    0    0   12
    0    0  -28  -47    0    0    0    0    0    0    0    0  -34    0    0    0    0    0    0    7   42    0  -15    0    0
    0    0    0    0   12    0    0   21    0   12    0    0    0    8    0    0    0    0   22   47  -32    0    0    0    0
    0    0    0  -32   16  -17    0   29    0    0    0    0    0    0    0    0    0    0    0    0    0   27    0    0   36
    0    0    0    0    0    0    0    0    0  -48    0   40    0   10    0    0    0    0    0    0   39    0  -32   20   50
    0   46    0    0    0    2   15    0    0    0  -15  -17    0    0    0   22    0    0    0   15    0    0   -1    0   30
    0    0   30   37    0    0    0    0    0    0  -35    0    0  -41    7   47    0    0   15    0    0    0    0    8    0
    0    0    0    7    0  -49    0    0    0    0   21    0   46   37   42  -32    0   39    0    0    0    0   -8    0    0
    0    0   21    0    0    0   32    0    0    2    0    0  -36   29    0    0   27    0    0    0    0    0   29    0   12
    0    0   46    0  -39    0  -12    0  -21    0    0    0    0    0  -15    0    0  -32   -1    0   -8   29    0  -30    1
   17    0    0    0    0   39    0  -22    0    0  -21    0    0    0    0    0    0   20    0    8    0    0  -30    0    0
   42   18    0  -47  -36    0   30    9    0    0    0    0    0   12    0    0   36   50   30    0    0   12    1    0    0
